
Gurobi 9.5.0 (linux64) logging started Wed Nov  8 21:03:47 2023

Set parameter LogFile to value "/lustre1/scratch/348/vsc34888/JointResearch/05.Models/06.Benchmarking/G.Representative_days_based_on_Line_Benefit_NN_OC_fy_2/9n_ByStages_nc80/openStarNet_9n_ByStages_nc80.log"
Set parameter Method to value 2
Set parameter MIPFocus to value 1
Set parameter Presolve to value 2
Set parameter RINS to value 100
Set parameter MIPGap to value 0.01
Set parameter Threads to value 36
Set parameter TimeLimit to value 604800
Set parameter IterationLimit to value 760000000
Gurobi Optimizer version 9.5.0 build v9.5.0rc5 (linux64)
Thread count: 36 physical cores, 36 logical processors, using up to 36 threads
Optimize a model with 20963 rows, 11141 columns and 65411 nonzeros
Model fingerprint: 0xe289498b
Variable types: 11105 continuous, 36 integer (36 binary)
Coefficient statistics:
  Matrix range     [8e-04, 1e+03]
  Objective range  [1e+00, 1e+00]
  Bounds range     [4e-04, 2e+00]
  RHS range        [4e-04, 1e+00]
Presolve removed 6803 rows and 3444 columns
Presolve time: 0.07s
Presolved: 14160 rows, 7697 columns, 50141 nonzeros
Variable types: 7661 continuous, 36 integer (36 binary)
Found heuristic solution: objective 879.1383309
Root relaxation presolved: 14160 rows, 7697 columns, 50141 nonzeros

Root barrier log...

Ordering time: 0.01s

Barrier statistics:
 Dense cols : 36
 AA' NZ     : 1.906e+05
 Factor NZ  : 3.883e+05 (roughly 12 MB of memory)
 Factor Ops : 1.624e+07 (less than 1 second per iteration)
 Threads    : 36

                  Objective                Residual
Iter       Primal          Dual         Primal    Dual     Compl     Time
   0   3.89939598e+05 -4.96437093e+07  6.53e+00 3.41e+02  5.48e+03     0s
   1   5.78730414e+04 -1.46007063e+07  7.72e-01 1.35e-09  7.36e+02     0s
   2   1.47383891e+04 -2.10408261e+06  9.35e-03 6.42e-10  7.67e+01     0s
   3   5.68182927e+03 -4.16265911e+04  6.18e-13 1.53e-11  1.70e+00     0s
   4   1.05537677e+03 -8.49359199e+03  3.17e-13 2.95e-12  3.43e-01     0s
   5   5.71013599e+02 -2.36331834e+03  2.61e-13 9.09e-13  1.05e-01     0s
   6   4.28732994e+02 -9.87091268e+02  1.79e-13 9.09e-13  5.08e-02     0s
   7   2.60954533e+02 -4.42309722e+02  1.96e-13 9.09e-13  2.52e-02     0s
   8   1.40497752e+02 -1.06793914e+02  5.16e-13 4.55e-13  8.87e-03     0s
   9   1.26995385e+02  3.02798281e+01  3.87e-13 1.82e-12  3.47e-03     0s
  10   9.96499226e+01  7.12160456e+01  6.36e-13 9.09e-13  1.02e-03     0s
  11   9.62261194e+01  8.12273351e+01  1.11e-12 4.55e-13  5.38e-04     0s
  12   9.27713187e+01  8.63422523e+01  3.24e-12 9.09e-13  2.31e-04     0s
  13   9.21164204e+01  8.79218899e+01  1.50e-11 9.09e-13  1.50e-04     0s
  14   9.14170502e+01  8.84206376e+01  5.18e-11 9.09e-13  1.08e-04     0s
  15   9.11838013e+01  8.86062208e+01  4.63e-11 9.09e-13  9.25e-05     0s
  16   9.05792231e+01  8.92444798e+01  1.40e-10 9.09e-13  4.79e-05     0s
  17   9.03317476e+01  8.93122191e+01  3.31e-10 4.55e-13  3.66e-05     0s
  18   9.02020608e+01  8.93738898e+01  2.58e-09 4.55e-13  2.97e-05     0s
  19   9.00400258e+01  8.97504595e+01  3.16e-09 9.09e-13  1.04e-05     0s
  20   8.99611894e+01  8.98022153e+01  9.82e-10 9.09e-13  5.70e-06     0s
  21   8.98680636e+01  8.98155471e+01  3.12e-10 9.09e-13  1.88e-06     0s
  22   8.98399817e+01  8.98379599e+01  2.58e-10 9.09e-13  7.25e-08     0s
  23   8.98388337e+01  8.98388164e+01  1.13e-10 9.09e-13  6.21e-10     0s
  24   8.98388294e+01  8.98388294e+01  4.10e-10 9.09e-13  8.80e-14     0s

Barrier solved model in 24 iterations and 0.49 seconds (0.32 work units)
Optimal objective 8.98388294e+01


Root relaxation: objective 8.983883e+01, 945 iterations, 0.38 seconds (0.21 work units)

    Nodes    |    Current Node    |     Objective Bounds      |     Work
 Expl Unexpl |  Obj  Depth IntInf | Incumbent    BestBd   Gap | It/Node Time

     0     0   89.83883    0    7  879.13833   89.83883  89.8%     -    0s
H    0     0                     205.2601477   97.32977  52.6%     -    0s
     0     0   97.32977    0    2  205.26015   97.32977  52.6%     -    0s
H    0     0                      97.8401114   97.32977  0.52%     -    0s

Cutting planes:
  MIR: 140
  Relax-and-lift: 1

Explored 1 nodes (1319 simplex iterations) in 0.81 seconds (0.50 work units)
Thread count was 36 (of 36 available processors)

Solution count 3: 97.8401 205.26 879.138 

Optimal solution found (tolerance 1.00e-02)
Best objective 9.784011137177e+01, best bound 9.732977329415e+01, gap 0.5216%

Gurobi 9.5.0 (linux64) logging started Wed Nov  8 21:03:50 2023

Set parameter LogFile to value "/lustre1/scratch/348/vsc34888/JointResearch/05.Models/06.Benchmarking/G.Representative_days_based_on_Line_Benefit_NN_OC_fy_2/9n_ByStages_nc80/openStarNet_9n_ByStages_nc80.log"
Set parameter Method to value 2
Set parameter MIPFocus to value 1
Set parameter Presolve to value 2
Set parameter RINS to value 100
Set parameter MIPGap to value 0.01
Set parameter Threads to value 36
Set parameter TimeLimit to value 604800
Set parameter IterationLimit to value 760000000
No parameters matching 'relax_integrality' found
Gurobi Optimizer version 9.5.0 build v9.5.0rc5 (linux64)
Thread count: 36 physical cores, 36 logical processors, using up to 36 threads
Optimize a model with 20963 rows, 11105 columns and 53855 nonzeros
Model fingerprint: 0x02d97d55
Coefficient statistics:
  Matrix range     [8e-04, 1e+03]
  Objective range  [1e+00, 1e+00]
  Bounds range     [4e-04, 2e+00]
  RHS range        [4e-04, 2e+01]
Presolve removed 18163 rows and 6214 columns
Presolve time: 0.02s
Presolved: 2800 rows, 4891 columns, 10571 nonzeros

Ordering time: 0.00s

Barrier statistics:
 AA' NZ     : 7.360e+03
 Factor NZ  : 2.856e+04 (roughly 3 MB of memory)
 Factor Ops : 3.511e+05 (less than 1 second per iteration)
 Threads    : 1

                  Objective                Residual
Iter       Primal          Dual         Primal    Dual     Compl     Time
   0   4.01842006e+05 -2.91724765e+07  3.45e+00 9.09e-13  6.45e+03     0s
   1   6.33187297e+04 -5.80926629e+06  3.87e-01 5.00e-12  7.85e+02     0s
   2   1.79987447e+04 -9.60702185e+05  1.73e-02 3.17e-12  9.46e+01     0s
   3   7.12378048e+03 -5.24943438e+04  4.35e-14 2.81e-12  5.55e+00     0s
   4   1.26285023e+03 -6.71366032e+03  7.73e-14 1.00e-12  7.43e-01     0s
   5   6.76146791e+02 -1.89447763e+03  6.22e-14 9.09e-13  2.39e-01     0s
   6   3.32733349e+02 -5.58856372e+02  5.68e-14 9.09e-13  8.30e-02     0s
   7   2.01201732e+02 -9.70087739e+01  8.39e-14 9.09e-13  2.78e-02     0s
   8   1.21193780e+02  6.58837265e+01  6.22e-13 9.09e-13  5.15e-03     0s
   9   1.02908213e+02  8.77285972e+01  3.01e-12 1.36e-12  1.41e-03     0s
  10   9.90196918e+01  9.42059225e+01  7.88e-12 9.09e-13  4.48e-04     0s
  11   9.81143340e+01  9.71078228e+01  3.75e-12 9.09e-13  9.37e-05     0s
  12   9.78928644e+01  9.76292423e+01  3.52e-12 9.09e-13  2.45e-05     0s
  13   9.78464380e+01  9.78349209e+01  2.07e-12 9.09e-13  1.07e-06     0s
  14   9.78402261e+01  9.78396942e+01  1.52e-10 1.82e-12  4.95e-08     0s
  15   9.78401118e+01  9.78401104e+01  1.80e-11 1.82e-12  1.36e-10     0s
  16   9.78401114e+01  9.78401114e+01  1.27e-12 9.09e-13  9.59e-16     0s

Barrier solved model in 16 iterations and 0.05 seconds (0.05 work units)
Optimal objective 9.78401114e+01

Crossover log...

     938 DPushes remaining with DInf 0.0000000e+00                 0s
       0 DPushes remaining with DInf 0.0000000e+00                 0s

     136 PPushes remaining with PInf 0.0000000e+00                 0s
       0 PPushes remaining with PInf 0.0000000e+00                 0s

  Push phase complete: Pinf 0.0000000e+00, Dinf 2.3675555e-13      0s

Iteration    Objective       Primal Inf.    Dual Inf.      Time
     192    9.7840111e+01   0.000000e+00   0.000000e+00      0s

Solved in 192 iterations and 0.07 seconds (0.05 work units)
Optimal objective  9.784011137e+01
